benchmarks_CP/INST_64x64/40/inst64x64_40_80.dzn
S=8;
start=[|
34,	-1,	-1,	-1,	11,	21,	-1,	2,	3,	39,	33,	-1,	42,	-1,	-1,	20,	-1,	8,	-1,	-1,	38,	-1,	-1,	-1,	59,	9,	48,	-1,	-1,	55,	-1,	-1,	-1,	-1,	27,	24,	1,	-1,	-1,	-1,	19,	47,	-1,	63,	50,	-1,	22,	31,	49,	-1,	62,	12,	6,	-1,	-1,	-1,	-1,	4,	-1,	61,	-1,	-1,	-1,	-1|
37,	-1,	-1,	-1,	22,	-1,	-1,	43,	21,	38,	-1,	-1,	-1,	-1,	-1,	27,	5,	-1,	-1,	30,	41,	-1,	45,	-1,	-1,	50,	60,	-1,	-1,	-1,	-1,	-1,	-1,	47,	-1,	28,	-1,	-1,	-1,	-1,	52,	-1,	54,	49,	-1,	-1,	-1,	57,	-1,	-1,	-1,	1,	20,	51,	58,	-1,	-1,	-1,	10,	-1,	-1,	-1,	-1,	-1|
-1,	-1,	-1,	45,	40,	-1,	-1,	-1,	28,	34,	60,	-1,	-1,	41,	-1,	-1,	42,	55,	36,	-1,	57,	12,	-1,	-1,	-1,	-1,	-1,	-1,	6,	8,	21,	-1,	59,	-1,	-1,	-1,	-1,	-1,	-1,	26,	64,	-1,	30,	4,	-1,	14,	11,	-1,	47,	-1,	-1,	-1,	-1,	-1,	-1,	-1,	-1,	-1,	-1,	23,	-1,	-1,	2,	5|
20,	-1,	-1,	-1,	-1,	-1,	-1,	-1,	25,	19,	37,	16,	-1,	-1,	18,	26,	-1,	-1,	-1,	11,	-1,	4,	-1,	-1,	32,	-1,	-1,	-1,	-1,	-1,	-1,	39,	-1,	-1,	12,	40,	57,	-1,	42,	-1,	-1,	-1,	-1,	61,	-1,	43,	-1,	60,	-1,	30,	9,	-1,	-1,	-1,	55,	-1,	-1,	-1,	38,	33,	15,	-1,	-1,	-1|
48,	-1,	33,	-1,	-1,	55,	-1,	50,	13,	-1,	-1,	-1,	44,	-1,	47,	30,	-1,	9,	-1,	-1,	46,	-1,	-1,	24,	-1,	-1,	49,	-1,	-1,	52,	11,	-1,	7,	19,	-1,	-1,	-1,	-1,	38,	2,	37,	35,	17,	-1,	32,	-1,	62,	-1,	26,	42,	14,	-1,	18,	-1,	-1,	-1,	20,	-1,	34,	-1,	54,	-1,	-1,	-1|
-1,	-1,	-1,	-1,	-1,	-1,	27,	-1,	56,	31,	-1,	-1,	-1,	-1,	-1,	62,	-1,	61,	3,	-1,	52,	-1,	-1,	-1,	63,	-1,	-1,	-1,	-1,	-1,	53,	45,	-1,	34,	-1,	-1,	-1,	-1,	55,	-1,	-1,	-1,	6,	-1,	-1,	-1,	2,	15,	40,	-1,	-1,	46,	36,	33,	-1,	11,	21,	28,	48,	-1,	-1,	49,	-1,	42|
3,	-1,	-1,	-1,	61,	-1,	-1,	-1,	-1,	-1,	-1,	-1,	-1,	-1,	12,	58,	-1,	-1,	-1,	-1,	19,	-1,	-1,	18,	-1,	15,	64,	-1,	-1,	-1,	30,	-1,	20,	-1,	-1,	-1,	13,	35,	-1,	37,	51,	-1,	46,	-1,	-1,	-1,	-1,	-1,	-1,	-1,	-1,	-1,	-1,	31,	53,	48,	-1,	-1,	-1,	27,	25,	40,	-1,	-1|
49,	-1,	-1,	-1,	-1,	59,	-1,	8,	-1,	57,	-1,	15,	45,	53,	-1,	-1,	-1,	-1,	-1,	13,	31,	34,	26,	-1,	-1,	20,	61,	-1,	58,	25,	-1,	-1,	-1,	30,	-1,	10,	62,	-1,	-1,	14,	1,	-1,	3,	-1,	-1,	-1,	-1,	-1,	-1,	-1,	-1,	-1,	-1,	64,	44,	-1,	-1,	32,	63,	46,	-1,	16,	22,	-1|
-1,	37,	-1,	-1,	49,	-1,	-1,	-1,	27,	8,	51,	-1,	9,	-1,	-1,	4,	6,	-1,	-1,	-1,	15,	36,	31,	41,	53,	-1,	-1,	14,	-1,	-1,	-1,	-1,	-1,	-1,	3,	7,	-1,	-1,	62,	-1,	46,	-1,	38,	1,	63,	-1,	10,	21,	24,	-1,	-1,	-1,	64,	-1,	-1,	-1,	-1,	-1,	-1,	-1,	33,	61,	-1,	40|
4,	-1,	3,	5,	13,	7,	-1,	17,	24,	41,	-1,	-1,	-1,	-1,	-1,	-1,	18,	22,	-1,	-1,	-1,	56,	-1,	-1,	15,	-1,	-1,	47,	-1,	-1,	-1,	9,	1,	60,	53,	-1,	-1,	-1,	35,	-1,	32,	-1,	-1,	16,	49,	-1,	-1,	-1,	-1,	-1,	-1,	-1,	-1,	-1,	28,	-1,	-1,	-1,	-1,	-1,	19,	-1,	45,	-1|
1,	-1,	14,	-1,	-1,	-1,	15,	-1,	31,	18,	-1,	-1,	-1,	25,	-1,	6,	-1,	-1,	-1,	-1,	-1,	-1,	42,	34,	-1,	-1,	40,	24,	63,	26,	-1,	-1,	36,	-1,	-1,	-1,	-1,	-1,	22,	-1,	-1,	13,	33,	53,	52,	28,	50,	-1,	21,	-1,	44,	-1,	-1,	-1,	-1,	60,	-1,	-1,	-1,	-1,	-1,	41,	-1,	-1|
42,	-1,	26,	-1,	2,	-1,	-1,	-1,	-1,	60,	16,	47,	-1,	29,	-1,	-1,	-1,	32,	-1,	-1,	-1,	10,	20,	38,	-1,	-1,	28,	7,	55,	-1,	23,	-1,	-1,	18,	-1,	-1,	-1,	-1,	61,	-1,	-1,	57,	24,	37,	8,	27,	-1,	44,	5,	-1,	25,	15,	-1,	30,	-1,	45,	-1,	-1,	17,	-1,	-1,	52,	-1,	-1|
57,	-1,	-1,	-1,	64,	47,	-1,	27,	12,	-1,	-1,	-1,	-1,	-1,	-1,	28,	37,	25,	-1,	-1,	58,	-1,	-1,	-1,	-1,	-1,	-1,	-1,	10,	-1,	22,	18,	54,	63,	2,	33,	-1,	-1,	-1,	29,	-1,	-1,	61,	15,	-1,	-1,	-1,	-1,	19,	11,	-1,	-1,	16,	-1,	-1,	34,	-1,	-1,	-1,	-1,	1,	31,	21,	13|
-1,	21,	-1,	-1,	-1,	-1,	48,	-1,	-1,	36,	64,	10,	-1,	-1,	-1,	-1,	26,	-1,	-1,	-1,	1,	-1,	4,	17,	58,	-1,	-1,	-1,	19,	20,	-1,	31,	-1,	16,	-1,	34,	-1,	-1,	-1,	-1,	25,	55,	-1,	-1,	11,	-1,	-1,	62,	2,	53,	-1,	40,	-1,	-1,	-1,	-1,	-1,	-1,	15,	-1,	-1,	12,	-1,	54|
40,	-1,	34,	-1,	28,	-1,	6,	41,	-1,	-1,	-1,	-1,	-1,	1,	21,	-1,	-1,	-1,	-1,	62,	-1,	-1,	16,	-1,	-1,	52,	51,	50,	64,	56,	-1,	-1,	14,	49,	31,	5,	11,	-1,	-1,	27,	-1,	26,	-1,	-1,	35,	-1,	47,	-1,	17,	18,	-1,	-1,	33,	9,	-1,	-1,	38,	-1,	53,	-1,	-1,	55,	-1,	44|
-1,	-1,	-1,	-1,	-1,	-1,	30,	-1,	-1,	-1,	54,	-1,	-1,	57,	-1,	-1,	40,	24,	-1,	5,	-1,	28,	-1,	44,	-1,	42,	-1,	16,	-1,	-1,	4,	-1,	15,	-1,	17,	-1,	-1,	-1,	-1,	47,	-1,	2,	-1,	-1,	19,	60,	18,	-1,	-1,	8,	56,	-1,	-1,	-1,	51,	13,	-1,	-1,	-1,	-1,	-1,	-1,	37,	-1|
22,	53,	-1,	-1,	-1,	-1,	-1,	-1,	-1,	64,	-1,	-1,	-1,	36,	-1,	41,	-1,	54,	-1,	-1,	-1,	-1,	51,	-1,	-1,	-1,	-1,	-1,	21,	2,	20,	-1,	-1,	-1,	29,	-1,	44,	-1,	23,	-1,	-1,	1,	8,	-1,	60,	-1,	52,	5,	-1,	25,	34,	-1,	46,	-1,	14,	18,	-1,	40,	42,	-1,	-1,	-1,	-1,	-1|
41,	-1,	-1,	-1,	-1,	61,	-1,	-1,	-1,	-1,	-1,	-1,	-1,	-1,	-1,	-1,	11,	38,	-1,	-1,	-1,	42,	-1,	-1,	-1,	-1,	-1,	58,	-1,	-1,	-1,	-1,	-1,	-1,	50,	13,	-1,	36,	53,	-1,	34,	4,	64,	-1,	24,	-1,	27,	59,	-1,	-1,	29,	-1,	-1,	40,	54,	12,	-1,	47,	-1,	-1,	-1,	21,	-1,	-1|
30,	-1,	-1,	-1,	-1,	48,	-1,	3,	-1,	53,	-1,	21,	-1,	-1,	-1,	47,	24,	-1,	-1,	-1,	43,	52,	19,	6,	-1,	-1,	35,	46,	22,	-1,	-1,	-1,	5,	-1,	-1,	-1,	58,	-1,	-1,	49,	9,	56,	-1,	17,	14,	-1,	16,	-1,	50,	-1,	-1,	33,	-1,	-1,	-1,	44,	-1,	-1,	-1,	55,	61,	-1,	-1,	-1|
-1,	32,	-1,	-1,	-1,	-1,	-1,	-1,	61,	-1,	-1,	44,	-1,	34,	22,	59,	21,	-1,	-1,	63,	-1,	41,	-1,	-1,	39,	53,	-1,	6,	-1,	40,	36,	29,	-1,	31,	-1,	-1,	19,	-1,	9,	55,	50,	-1,	-1,	-1,	23,	-1,	-1,	-1,	-1,	60,	17,	56,	-1,	1,	-1,	16,	43,	33,	-1,	-1,	-1,	24,	28,	8|
39,	-1,	16,	-1,	-1,	10,	-1,	-1,	17,	-1,	32,	42,	-1,	11,	-1,	19,	64,	-1,	-1,	28,	-1,	8,	61,	-1,	55,	27,	-1,	-1,	-1,	-1,	-1,	-1,	-1,	-1,	35,	-1,	-1,	14,	-1,	-1,	-1,	22,	37,	-1,	13,	-1,	-1,	-1,	-1,	-1,	-1,	31,	-1,	7,	15,	-1,	-1,	25,	46,	-1,	5,	-1,	36,	-1|
12,	8,	-1,	21,	7,	4,	-1,	-1,	-1,	-1,	-1,	-1,	-1,	-1,	-1,	-1,	20,	44,	-1,	35,	49,	14,	-1,	-1,	33,	-1,	-1,	31,	52,	-1,	1,	24,	-1,	-1,	-1,	-1,	15,	34,	10,	22,	-1,	-1,	-1,	-1,	-1,	-1,	-1,	47,	-1,	-1,	-1,	28,	-1,	-1,	-1,	-1,	-1,	-1,	58,	11,	-1,	30,	-1,	50|
-1,	-1,	-1,	9,	-1,	38,	57,	-1,	46,	37,	-1,	-1,	-1,	52,	7,	-1,	34,	-1,	-1,	-1,	-1,	18,	1,	-1,	4,	-1,	-1,	-1,	-1,	-1,	-1,	-1,	56,	-1,	42,	-1,	-1,	40,	16,	-1,	-1,	32,	-1,	-1,	-1,	45,	25,	33,	-1,	36,	-1,	13,	-1,	-1,	47,	53,	-1,	27,	19,	-1,	-1,	-1,	39,	-1|
19,	-1,	13,	11,	-1,	-1,	-1,	-1,	-1,	-1,	-1,	40,	-1,	10,	50,	-1,	-1,	-1,	-1,	-1,	-1,	-1,	9,	-1,	-1,	32,	-1,	60,	-1,	-1,	25,	-1,	-1,	-1,	-1,	-1,	-1,	-1,	-1,	33,	-1,	38,	58,	31,	-1,	54,	-1,	26,	55,	2,	22,	-1,	-1,	-1,	-1,	-1,	34,	-1,	-1,	57,	44,	-1,	-1,	-1|
-1,	51,	-1,	-1,	33,	-1,	-1,	-1,	50,	-1,	-1,	-1,	-1,	-1,	10,	14,	25,	-1,	-1,	53,	6,	35,	15,	64,	-1,	61,	-1,	9,	-1,	-1,	55,	20,	17,	-1,	-1,	-1,	-1,	-1,	-1,	28,	59,	-1,	-1,	57,	-1,	-1,	-1,	-1,	-1,	40,	41,	34,	-1,	-1,	-1,	-1,	5,	38,	-1,	-1,	-1,	7,	-1,	-1|
16,	-1,	49,	-1,	59,	-1,	-1,	-1,	-1,	-1,	-1,	34,	-1,	-1,	-1,	-1,	61,	-1,	58,	-1,	-1,	57,	-1,	-1,	-1,	2,	47,	-1,	-1,	-1,	-1,	-1,	35,	43,	-1,	-1,	-1,	12,	24,	-1,	-1,	-1,	-1,	14,	-1,	-1,	5,	63,	29,	-1,	-1,	-1,	-1,	-1,	-1,	-1,	-1,	-1,	-1,	-1,	-1,	13,	-1,	33|
10,	-1,	-1,	-1,	-1,	-1,	-1,	32,	-1,	-1,	45,	-1,	-1,	-1,	43,	-1,	-1,	-1,	49,	18,	28,	-1,	46,	-1,	-1,	-1,	-1,	51,	-1,	23,	-1,	-1,	-1,	-1,	-1,	-1,	-1,	-1,	7,	58,	55,	30,	-1,	-1,	64,	33,	4,	-1,	-1,	52,	15,	-1,	53,	44,	-1,	36,	-1,	-1,	-1,	-1,	40,	-1,	-1,	-1|
-1,	3,	-1,	-1,	-1,	-1,	50,	12,	-1,	-1,	20,	-1,	-1,	13,	8,	-1,	-1,	60,	-1,	33,	-1,	-1,	10,	63,	-1,	-1,	-1,	-1,	4,	46,	52,	-1,	-1,	-1,	36,	30,	-1,	-1,	-1,	-1,	2,	62,	-1,	-1,	-1,	1,	28,	-1,	57,	58,	-1,	45,	9,	-1,	-1,	47,	-1,	-1,	-1,	-1,	-1,	-1,	15,	-1|
-1,	30,	52,	-1,	41,	-1,	1,	60,	51,	-1,	-1,	-1,	-1,	-1,	-1,	-1,	-1,	-1,	32,	-1,	-1,	-1,	13,	4,	-1,	-1,	-1,	-1,	-1,	-1,	35,	-1,	-1,	-1,	-1,	42,	-1,	9,	-1,	-1,	-1,	20,	-1,	-1,	-1,	-1,	-1,	-1,	-1,	-1,	-1,	-1,	-1,	14,	5,	24,	62,	10,	-1,	-1,	37,	63,	64,	-1|
63,	-1,	-1,	62,	5,	-1,	-1,	7,	-1,	35,	9,	59,	15,	37,	58,	-1,	-1,	51,	-1,	-1,	-1,	-1,	43,	36,	26,	-1,	25,	-1,	44,	-1,	-1,	-1,	-1,	-1,	-1,	-1,	2,	11,	64,	6,	45,	-1,	-1,	12,	56,	22,	48,	46,	-1,	-1,	-1,	-1,	-1,	-1,	-1,	-1,	-1,	55,	-1,	4,	-1,	34,	-1,	-1|
-1,	6,	-1,	-1,	9,	-1,	29,	53,	64,	-1,	49,	32,	-1,	-1,	36,	42,	-1,	-1,	-1,	45,	-1,	-1,	-1,	-1,	7,	-1,	10,	-1,	-1,	62,	13,	-1,	55,	-1,	19,	-1,	22,	21,	-1,	60,	38,	-1,	40,	18,	47,	-1,	-1,	-1,	-1,	4,	-1,	51,	-1,	11,	-1,	-1,	-1,	-1,	-1,	-1,	-1,	-1,	8,	20|
-1,	46,	64,	40,	18,	57,	-1,	-1,	-1,	47,	27,	-1,	-1,	-1,	52,	-1,	-1,	21,	7,	55,	-1,	-1,	-1,	8,	30,	-1,	-1,	-1,	45,	29,	43,	14,	51,	20,	-1,	-1,	-1,	-1,	-1,	-1,	15,	-1,	-1,	-1,	26,	37,	-1,	-1,	-1,	38,	42,	-1,	-1,	60,	-1,	61,	50,	31,	-1,	-1,	-1,	-1,	-1,	-1|
25,	-1,	-1,	2,	60,	-1,	-1,	14,	22,	-1,	1,	9,	35,	-1,	-1,	-1,	-1,	-1,	26,	38,	45,	-1,	-1,	51,	47,	-1,	-1,	8,	61,	39,	-1,	-1,	-1,	21,	-1,	-1,	-1,	-1,	29,	-1,	-1,	-1,	19,	59,	-1,	40,	-1,	-1,	3,	48,	-1,	42,	56,	-1,	-1,	-1,	-1,	-1,	44,	10,	-1,	5,	63,	24|
5,	17,	50,	59,	-1,	54,	-1,	-1,	-1,	52,	41,	49,	3,	58,	16,	-1,	-1,	46,	-1,	27,	-1,	-1,	64,	35,	-1,	11,	57,	-1,	-1,	-1,	-1,	-1,	40,	-1,	-1,	45,	-1,	-1,	-1,	-1,	7,	34,	-1,	-1,	2,	-1,	-1,	37,	38,	-1,	-1,	60,	29,	28,	-1,	-1,	-1,	-1,	21,	43,	-1,	-1,	-1,	56|
64,	-1,	51,	49,	-1,	3,	20,	-1,	-1,	48,	-1,	-1,	33,	27,	-1,	60,	22,	-1,	-1,	7,	-1,	39,	-1,	40,	-1,	-1,	-1,	25,	-1,	50,	-1,	-1,	44,	62,	-1,	35,	34,	2,	17,	53,	42,	-1,	13,	-1,	46,	-1,	55,	-1,	-1,	1,	52,	-1,	58,	-1,	-1,	-1,	61,	11,	57,	-1,	12,	-1,	-1,	-1|
-1,	-1,	-1,	-1,	43,	-1,	-1,	23,	15,	46,	-1,	-1,	59,	26,	44,	-1,	-1,	31,	28,	-1,	13,	53,	32,	-1,	-1,	-1,	-1,	48,	-1,	-1,	-1,	-1,	18,	5,	61,	-1,	63,	56,	-1,	-1,	24,	41,	-1,	58,	-1,	-1,	-1,	-1,	-1,	50,	-1,	-1,	-1,	34,	2,	55,	4,	-1,	33,	25,	-1,	60,	-1,	-1|
33,	-1,	-1,	-1,	30,	-1,	36,	38,	-1,	45,	-1,	-1,	25,	-1,	-1,	-1,	41,	18,	-1,	-1,	-1,	54,	-1,	37,	-1,	29,	-1,	-1,	34,	43,	-1,	-1,	-1,	-1,	57,	-1,	24,	-1,	11,	7,	-1,	9,	-1,	-1,	-1,	-1,	-1,	10,	64,	-1,	53,	16,	-1,	-1,	-1,	6,	31,	-1,	-1,	50,	-1,	-1,	-1,	-1|
7,	-1,	-1,	-1,	32,	-1,	44,	-1,	-1,	-1,	-1,	61,	-1,	40,	-1,	37,	-1,	-1,	-1,	-1,	-1,	-1,	-1,	-1,	-1,	-1,	-1,	36,	46,	-1,	56,	-1,	27,	-1,	-1,	-1,	-1,	-1,	-1,	-1,	-1,	15,	-1,	-1,	-1,	11,	-1,	50,	-1,	-1,	-1,	-1,	-1,	35,	24,	-1,	54,	26,	62,	30,	-1,	-1,	19,	-1|
-1,	-1,	-1,	-1,	-1,	-1,	-1,	-1,	-1,	-1,	36,	-1,	-1,	-1,	-1,	-1,	44,	-1,	-1,	-1,	-1,	-1,	-1,	-1,	-1,	-1,	-1,	-1,	-1,	13,	49,	1,	-1,	-1,	-1,	-1,	-1,	30,	-1,	-1,	23,	-1,	-1,	22,	57,	-1,	-1,	6,	-1,	-1,	10,	-1,	5,	62,	40,	-1,	-1,	-1,	-1,	-1,	-1,	46,	-1,	51|
-1,	-1,	-1,	12,	24,	-1,	-1,	1,	34,	-1,	-1,	-1,	-1,	-1,	54,	-1,	-1,	-1,	15,	-1,	-1,	-1,	49,	19,	-1,	5,	-1,	-1,	-1,	64,	10,	60,	-1,	-1,	-1,	-1,	-1,	-1,	-1,	-1,	-1,	53,	-1,	-1,	45,	-1,	29,	52,	11,	-1,	7,	43,	-1,	-1,	-1,	-1,	22,	35,	-1,	36,	-1,	-1,	20,	37|
59,	7,	-1,	19,	-1,	-1,	-1,	33,	-1,	61,	11,	-1,	-1,	-1,	-1,	16,	-1,	29,	-1,	-1,	-1,	-1,	-1,	-1,	34,	-1,	-1,	38,	-1,	-1,	8,	41,	-1,	24,	-1,	-1,	-1,	43,	2,	18,	-1,	58,	-1,	26,	44,	23,	-1,	-1,	-1,	17,	21,	30,	-1,	-1,	-1,	-1,	40,	-1,	-1,	-1,	-1,	-1,	-1,	63|
-1,	-1,	-1,	16,	-1,	24,	-1,	57,	37,	-1,	-1,	-1,	7,	-1,	31,	9,	50,	-1,	45,	26,	-1,	51,	-1,	28,	-1,	-1,	-1,	-1,	32,	36,	47,	33,	8,	40,	-1,	58,	-1,	55,	-1,	-1,	35,	21,	-1,	11,	54,	12,	-1,	-1,	-1,	34,	-1,	59,	-1,	-1,	63,	-1,	-1,	-1,	-1,	60,	-1,	-1,	-1,	-1|
11,	10,	20,	-1,	54,	37,	5,	-1,	-1,	28,	38,	-1,	-1,	3,	-1,	49,	1,	-1,	30,	-1,	-1,	-1,	39,	-1,	-1,	18,	-1,	-1,	-1,	-1,	-1,	21,	-1,	13,	-1,	25,	-1,	59,	44,	-1,	17,	-1,	-1,	-1,	-1,	-1,	-1,	16,	53,	-1,	40,	-1,	-1,	8,	-1,	-1,	2,	-1,	64,	-1,	22,	-1,	-1,	48|
-1,	-1,	32,	-1,	34,	-1,	-1,	-1,	-1,	-1,	-1,	-1,	-1,	-1,	51,	52,	-1,	-1,	59,	-1,	7,	-1,	-1,	60,	-1,	-1,	-1,	22,	-1,	-1,	31,	63,	-1,	64,	62,	-1,	3,	16,	-1,	10,	-1,	-1,	9,	-1,	-1,	-1,	42,	-1,	61,	-1,	39,	-1,	-1,	36,	-1,	58,	-1,	-1,	-1,	41,	-1,	54,	-1,	57|
-1,	-1,	12,	56,	-1,	-1,	39,	49,	-1,	4,	59,	-1,	-1,	-1,	-1,	29,	-1,	-1,	-1,	14,	-1,	-1,	-1,	-1,	43,	-1,	-1,	-1,	-1,	-1,	-1,	-1,	60,	50,	-1,	-1,	33,	-1,	-1,	-1,	-1,	37,	-1,	-1,	-1,	-1,	31,	28,	-1,	44,	47,	-1,	-1,	20,	7,	9,	36,	42,	-1,	-1,	32,	10,	-1,	-1|
-1,	-1,	55,	-1,	-1,	50,	-1,	28,	44,	-1,	46,	1,	-1,	35,	-1,	-1,	-1,	42,	-1,	-1,	-1,	-1,	40,	-1,	-1,	-1,	-1,	-1,	-1,	-1,	15,	10,	-1,	36,	-1,	-1,	-1,	-1,	6,	-1,	4,	-1,	-1,	-1,	-1,	30,	-1,	-1,	-1,	-1,	12,	-1,	-1,	-1,	-1,	-1,	-1,	-1,	-1,	47,	-1,	-1,	-1,	34|
-1,	-1,	-1,	-1,	-1,	-1,	63,	-1,	32,	55,	-1,	-1,	-1,	33,	-1,	-1,	3,	-1,	-1,	37,	47,	-1,	-1,	2,	42,	39,	-1,	-1,	-1,	59,	-1,	-1,	49,	-1,	14,	23,	-1,	-1,	56,	-1,	48,	-1,	57,	34,	22,	-1,	-1,	-1,	-1,	28,	6,	-1,	-1,	16,	-1,	62,	-1,	61,	-1,	17,	-1,	-1,	5,	-1|
-1,	-1,	36,	30,	52,	-1,	-1,	-1,	-1,	-1,	-1,	-1,	-1,	-1,	56,	34,	-1,	-1,	-1,	-1,	-1,	17,	44,	31,	-1,	46,	-1,	49,	7,	-1,	24,	16,	-1,	-1,	37,	-1,	-1,	-1,	-1,	-1,	14,	-1,	-1,	-1,	62,	-1,	-1,	-1,	-1,	10,	-1,	64,	-1,	25,	-1,	23,	28,	-1,	39,	-1,	-1,	-1,	-1,	43|
-1,	-1,	44,	-1,	42,	-1,	-1,	-1,	52,	49,	-1,	58,	47,	28,	35,	61,	-1,	-1,	-1,	-1,	-1,	-1,	21,	25,	22,	-1,	-1,	11,	17,	-1,	-1,	-1,	-1,	-1,	-1,	-1,	6,	-1,	-1,	56,	26,	50,	-1,	32,	27,	-1,	-1,	48,	-1,	-1,	-1,	-1,	19,	24,	-1,	-1,	-1,	-1,	-1,	3,	16,	-1,	40,	-1|
46,	49,	-1,	64,	-1,	-1,	-1,	-1,	-1,	29,	25,	-1,	16,	20,	62,	-1,	-1,	-1,	-1,	8,	3,	-1,	-1,	5,	23,	10,	-1,	-1,	-1,	9,	-1,	-1,	-1,	4,	59,	-1,	37,	-1,	-1,	-1,	54,	-1,	-1,	-1,	-1,	-1,	-1,	-1,	7,	57,	2,	-1,	1,	-1,	-1,	-1,	-1,	-1,	-1,	-1,	21,	45,	-1,	-1|
-1,	-1,	-1,	3,	8,	-1,	-1,	40,	-1,	-1,	30,	46,	37,	4,	55,	15,	-1,	-1,	-1,	36,	16,	-1,	57,	-1,	-1,	-1,	44,	1,	13,	-1,	48,	-1,	63,	51,	-1,	-1,	-1,	-1,	31,	-1,	-1,	-1,	25,	-1,	-1,	-1,	58,	56,	18,	-1,	45,	35,	-1,	-1,	-1,	-1,	32,	5,	26,	-1,	23,	20,	17,	-1|
29,	39,	1,	17,	26,	33,	18,	-1,	-1,	11,	-1,	-1,	40,	60,	-1,	13,	-1,	-1,	64,	15,	-1,	-1,	41,	-1,	27,	-1,	-1,	2,	-1,	-1,	-1,	-1,	-1,	25,	23,	-1,	-1,	-1,	-1,	34,	16,	-1,	59,	-1,	4,	-1,	-1,	3,	-1,	-1,	30,	22,	-1,	37,	32,	38,	44,	-1,	56,	-1,	-1,	-1,	-1,	12|
-1,	25,	-1,	32,	-1,	43,	52,	-1,	-1,	-1,	21,	-1,	18,	-1,	-1,	10,	45,	-1,	55,	-1,	22,	-1,	17,	59,	-1,	33,	-1,	-1,	35,	-1,	-1,	-1,	58,	-1,	-1,	15,	-1,	20,	49,	36,	6,	-1,	-1,	-1,	-1,	38,	46,	53,	4,	14,	-1,	-1,	-1,	13,	34,	-1,	7,	1,	-1,	-1,	-1,	8,	31,	-1|
58,	31,	-1,	-1,	38,	27,	-1,	55,	-1,	-1,	-1,	-1,	-1,	-1,	-1,	36,	-1,	-1,	48,	9,	-1,	-1,	-1,	42,	49,	-1,	-1,	-1,	-1,	-1,	-1,	8,	43,	-1,	64,	-1,	-1,	57,	52,	-1,	18,	-1,	1,	-1,	-1,	24,	-1,	-1,	15,	16,	-1,	6,	40,	12,	-1,	-1,	35,	-1,	30,	-1,	-1,	37,	-1,	41|
-1,	50,	21,	35,	16,	45,	-1,	-1,	1,	63,	-1,	17,	-1,	-1,	-1,	48,	12,	-1,	31,	32,	-1,	26,	-1,	10,	-1,	6,	18,	-1,	-1,	-1,	59,	-1,	-1,	-1,	-1,	22,	-1,	-1,	-1,	39,	29,	-1,	2,	23,	-1,	5,	-1,	-1,	-1,	-1,	-1,	44,	54,	-1,	-1,	49,	60,	34,	-1,	-1,	-1,	28,	-1,	-1|
28,	14,	-1,	-1,	-1,	-1,	-1,	-1,	-1,	-1,	-1,	57,	32,	31,	-1,	12,	-1,	-1,	-1,	-1,	29,	-1,	-1,	-1,	36,	-1,	3,	21,	-1,	-1,	-1,	25,	9,	-1,	-1,	-1,	16,	-1,	1,	-1,	49,	-1,	-1,	60,	-1,	-1,	13,	64,	-1,	-1,	-1,	58,	-1,	-1,	-1,	-1,	24,	-1,	-1,	-1,	11,	-1,	-1,	15|
52,	-1,	-1,	-1,	-1,	-1,	10,	-1,	49,	-1,	23,	-1,	8,	-1,	-1,	31,	33,	-1,	50,	-1,	25,	-1,	-1,	32,	-1,	-1,	-1,	45,	-1,	18,	-1,	17,	38,	-1,	-1,	6,	-1,	-1,	-1,	62,	21,	60,	-1,	-1,	28,	59,	-1,	-1,	-1,	-1,	-1,	-1,	7,	-1,	30,	-1,	11,	-1,	55,	-1,	46,	-1,	-1,	-1|
31,	-1,	-1,	-1,	25,	-1,	-1,	-1,	35,	-1,	-1,	28,	-1,	-1,	15,	-1,	58,	-1,	-1,	47,	42,	23,	-1,	-1,	61,	55,	-1,	-1,	-1,	-1,	5,	-1,	-1,	12,	-1,	-1,	-1,	-1,	-1,	-1,	-1,	-1,	49,	-1,	-1,	-1,	9,	-1,	-1,	-1,	43,	20,	-1,	54,	-1,	-1,	26,	48,	-1,	-1,	-1,	-1,	-1,	17|
-1,	-1,	-1,	-1,	14,	-1,	-1,	-1,	-1,	-1,	-1,	-1,	-1,	-1,	-1,	-1,	-1,	-1,	-1,	-1,	12,	21,	-1,	54,	-1,	-1,	22,	-1,	43,	10,	-1,	-1,	-1,	32,	-1,	-1,	40,	33,	-1,	-1,	-1,	-1,	55,	-1,	58,	-1,	-1,	-1,	-1,	64,	-1,	23,	-1,	63,	-1,	-1,	-1,	-1,	28,	34,	-1,	19,	-1,	16|
-1,	33,	-1,	-1,	-1,	49,	-1,	-1,	2,	-1,	50,	60,	-1,	-1,	-1,	-1,	17,	-1,	24,	-1,	35,	-1,	-1,	-1,	-1,	-1,	31,	-1,	30,	-1,	9,	-1,	-1,	-1,	56,	53,	-1,	-1,	-1,	13,	-1,	39,	-1,	10,	-1,	8,	-1,	20,	-1,	19,	5,	-1,	12,	-1,	46,	-1,	-1,	-1,	47,	18,	29,	-1,	-1,	59|
8,	-1,	-1,	43,	-1,	-1,	-1,	-1,	54,	-1,	-1,	-1,	-1,	47,	-1,	-1,	-1,	-1,	-1,	-1,	-1,	-1,	7,	-1,	44,	19,	46,	-1,	48,	3,	-1,	2,	-1,	-1,	-1,	20,	-1,	-1,	-1,	-1,	22,	-1,	-1,	-1,	34,	25,	-1,	24,	-1,	61,	-1,	-1,	60,	18,	11,	37,	-1,	21,	-1,	5,	-1,	38,	-1,	-1|
-1,	-1,	-1,	-1,	-1,	6,	-1,	-1,	-1,	56,	-1,	13,	-1,	46,	29,	-1,	52,	28,	19,	-1,	-1,	-1,	-1,	-1,	-1,	-1,	-1,	15,	-1,	-1,	-1,	57,	-1,	58,	-1,	-1,	-1,	49,	-1,	23,	-1,	14,	-1,	-1,	-1,	-1,	-1,	-1,	-1,	27,	31,	-1,	21,	50,	-1,	-1,	-1,	-1,	8,	1,	62,	-1,	54,	-1|
-1,	28,	7,	38,	-1,	44,	22,	-1,	11,	-1,	-1,	-1,	-1,	-1,	-1,	-1,	-1,	10,	20,	-1,	51,	61,	60,	-1,	-1,	-1,	-1,	-1,	49,	35,	-1,	58,	64,	-1,	46,	-1,	-1,	-1,	37,	-1,	27,	5,	-1,	19,	31,	15,	-1,	2,	-1,	-1,	-1,	53,	48,	42,	-1,	17,	57,	-1,	9,	-1,	-1,	-1,	32,	-1|
53,	-1,	19,	-1,	-1,	-1,	-1,	-1,	-1,	-1,	4,	-1,	38,	-1,	-1,	-1,	-1,	26,	-1,	40,	55,	-1,	8,	-1,	64,	-1,	50,	-1,	-1,	16,	-1,	13,	34,	44,	1,	-1,	-1,	-1,	-1,	-1,	63,	-1,	7,	46,	-1,	-1,	54,	-1,	-1,	-1,	-1,	-1,	-1,	47,	52,	-1,	-1,	2,	20,	15,	-1,	58,	-1,	-1|];
