sudoku-ls/benchmarks_LEQ/INST_64x64/40/inst64x64_40_80.txt
8
1
-1	-1	-1	-1	-1	21	-1	2	-1	-1	33	-1	-1	51	-1	-1	15	8	-1	-1	-1	-1	35	53	59	-1	-1	13	54	-1	40	-1	-1	-1	-1	-1	-1	-1	58	64	-1	-1	-1	-1	-1	44	-1	-1	-1	-1	62	12	6	-1	-1	7	-1	4	37	-1	-1	-1	-1	-1
-1	-1	-1	-1	22	-1	-1	-1	-1	38	14	11	63	-1	-1	-1	-1	-1	-1	-1	-1	-1	-1	56	-1	-1	-1	-1	23	33	42	46	16	-1	32	-1	-1	-1	8	-1	-1	-1	54	-1	-1	-1	-1	57	34	35	-1	-1	-1	51	-1	25	19	24	-1	59	-1	-1	-1	-1
-1	-1	-1	-1	-1	-1	-1	13	-1	-1	-1	-1	-1	-1	9	1	-1	-1	-1	-1	-1	-1	-1	-1	-1	-1	-1	-1	-1	-1	21	-1	59	-1	22	-1	-1	25	51	-1	64	16	30	-1	-1	-1	-1	58	-1	-1	-1	-1	-1	15	-1	-1	18	-1	-1	-1	35	-1	2	-1
20	-1	-1	-1	36	-1	35	-1	25	-1	37	-1	-1	-1	18	26	59	58	54	-1	-1	4	6	-1	32	28	-1	-1	47	27	-1	39	-1	-1	12	-1	-1	-1	42	-1	53	-1	-1	61	48	43	-1	-1	52	-1	9	-1	8	5	-1	22	-1	51	-1	33	-1	-1	29	-1
48	16	-1	10	6	55	64	50	-1	5	-1	-1	44	22	-1	-1	-1	-1	-1	-1	46	1	-1	-1	-1	-1	49	-1	-1	-1	-1	-1	-1	19	-1	36	-1	53	-1	-1	37	35	17	27	32	-1	62	12	-1	-1	14	-1	-1	-1	-1	4	20	-1	-1	-1	54	43	60	-1
51	-1	30	-1	58	-1	-1	-1	56	-1	35	7	-1	-1	-1	-1	-1	-1	-1	20	-1	44	-1	47	-1	-1	41	17	18	-1	53	45	-1	-1	-1	-1	-1	-1	55	-1	8	59	6	-1	-1	26	2	15	-1	29	13	46	-1	33	57	-1	21	-1	-1	-1	64	-1	-1	42
3	5	-1	-1	-1	32	62	-1	-1	-1	8	-1	36	-1	12	58	7	14	29	60	19	22	-1	-1	-1	-1	64	-1	-1	-1	-1	-1	20	6	-1	-1	-1	35	45	-1	51	24	-1	-1	-1	-1	34	-1	16	43	28	2	-1	-1	-1	48	-1	50	-1	-1	25	-1	-1	11
49	12	42	7	4	-1	54	-1	-1	57	-1	15	45	-1	6	-1	51	17	-1	-1	31	-1	-1	-1	-1	20	-1	-1	-1	-1	-1	35	-1	-1	-1	-1	-1	-1	-1	-1	-1	28	-1	36	-1	29	-1	41	60	-1	-1	-1	27	64	-1	-1	-1	32	63	46	52	-1	22	-1
45	37	18	20	-1	-1	-1	-1	-1	-1	-1	2	-1	-1	-1	-1	-1	-1	-1	-1	15	36	-1	-1	-1	54	-1	-1	25	12	39	30	-1	-1	-1	7	55	44	62	-1	46	29	-1	1	-1	-1	-1	21	24	-1	-1	-1	64	52	-1	-1	16	-1	-1	-1	-1	61	-1	40
4	-1	3	5	13	-1	23	17	24	41	-1	-1	-1	44	14	-1	-1	22	-1	-1	21	-1	-1	12	-1	-1	-1	-1	-1	11	37	-1	-1	60	53	57	64	-1	35	-1	-1	40	34	-1	-1	58	-1	-1	-1	-1	55	62	31	-1	-1	20	25	30	-1	-1	-1	50	-1	-1
1	-1	14	-1	-1	-1	-1	16	31	18	-1	-1	-1	-1	19	-1	30	-1	35	39	-1	-1	42	-1	57	-1	-1	-1	-1	-1	-1	27	-1	-1	-1	-1	-1	-1	22	-1	5	-1	33	-1	52	28	50	-1	-1	3	-1	54	-1	-1	-1	60	48	59	7	32	20	-1	-1	-1
42	-1	-1	50	2	-1	33	54	-1	60	-1	47	-1	-1	34	11	43	-1	-1	-1	-1	10	20	-1	-1	-1	-1	-1	-1	-1	-1	49	21	-1	-1	-1	59	46	61	-1	36	57	-1	-1	-1	27	-1	44	-1	-1	25	-1	-1	-1	-1	-1	-1	-1	17	35	-1	52	-1	3
57	62	-1	-1	-1	-1	-1	27	-1	-1	56	-1	39	55	40	28	-1	-1	-1	-1	58	48	50	-1	-1	-1	43	-1	-1	17	-1	18	-1	63	-1	33	30	-1	-1	29	-1	3	-1	-1	-1	-1	41	-1	-1	-1	-1	7	16	38	-1	34	42	-1	-1	-1	-1	31	21	-1
-1	-1	-1	63	-1	39	48	-1	-1	36	-1	-1	-1	-1	-1	22	26	-1	-1	57	-1	-1	4	-1	58	45	-1	41	-1	20	-1	31	-1	-1	-1	34	-1	-1	-1	-1	-1	55	-1	-1	11	9	6	62	-1	53	35	-1	37	-1	59	-1	47	-1	15	8	27	12	-1	54
-1	43	-1	-1	-1	25	6	41	-1	-1	15	37	-1	1	21	-1	-1	-1	-1	62	-1	-1	-1	45	48	-1	-1	-1	64	-1	-1	-1	14	-1	31	5	-1	-1	-1	-1	-1	26	22	-1	-1	7	-1	23	-1	-1	58	10	33	9	42	-1	38	-1	-1	-1	57	-1	-1	-1
-1	61	9	58	-1	-1	-1	59	33	-1	-1	-1	53	57	38	-1	40	24	-1	5	-1	28	55	44	-1	-1	36	-1	62	-1	-1	3	-1	-1	-1	-1	25	-1	-1	-1	31	-1	-1	-1	19	-1	-1	-1	1	-1	-1	49	63	-1	-1	-1	-1	-1	11	26	34	64	-1	-1
-1	-1	-1	-1	-1	-1	45	62	55	-1	-1	27	4	36	49	-1	-1	54	-1	31	32	-1	-1	-1	50	17	-1	-1	-1	2	-1	-1	-1	28	-1	-1	-1	-1	23	-1	61	-1	-1	-1	60	-1	-1	5	48	-1	-1	-1	46	-1	14	-1	-1	-1	-1	-1	-1	-1	59	35
41	55	56	-1	-1	-1	-1	26	-1	15	-1	33	48	45	-1	-1	11	-1	-1	23	-1	42	-1	7	-1	43	16	58	14	49	-1	44	-1	-1	-1	-1	-1	-1	-1	8	34	4	-1	2	24	19	-1	-1	-1	-1	29	9	52	-1	-1	12	10	-1	-1	-1	31	-1	-1	32
30	-1	31	-1	-1	-1	-1	-1	18	-1	-1	-1	-1	-1	-1	-1	24	-1	60	10	-1	-1	19	-1	13	-1	-1	-1	-1	-1	-1	-1	-1	59	-1	-1	58	45	-1	-1	9	56	11	-1	-1	-1	16	-1	50	-1	-1	33	-1	-1	20	44	-1	-1	23	-1	-1	-1	-1	-1
14	32	-1	42	20	64	49	-1	61	-1	-1	-1	-1	34	22	-1	-1	-1	-1	63	37	41	2	-1	-1	-1	-1	6	12	-1	-1	-1	30	31	-1	26	-1	-1	-1	-1	-1	-1	-1	-1	23	-1	-1	-1	45	-1	-1	-1	11	-1	-1	-1	43	33	-1	-1	38	-1	28	8
-1	-1	16	-1	51	-1	-1	34	17	-1	-1	-1	-1	11	1	-1	-1	50	4	28	-1	8	-1	33	-1	-1	-1	-1	-1	48	45	47	-1	-1	35	38	60	-1	57	41	3	-1	-1	44	13	49	21	18	-1	6	-1	-1	59	7	-1	-1	53	-1	46	-1	-1	-1	36	29
-1	8	2	21	7	-1	-1	25	57	-1	13	-1	-1	9	3	-1	-1	-1	-1	35	-1	-1	59	-1	33	-1	-1	-1	52	-1	1	24	61	-1	-1	37	-1	34	-1	-1	41	48	63	-1	36	-1	40	-1	-1	-1	19	28	-1	-1	64	43	-1	-1	58	11	-1	30	51	50
50	29	-1	9	-1	-1	57	-1	-1	-1	24	31	-1	-1	-1	51	-1	62	22	58	-1	-1	-1	15	-1	-1	59	-1	-1	-1	61	5	-1	-1	-1	64	-1	40	-1	-1	-1	-1	12	-1	-1	-1	-1	-1	-1	36	-1	-1	-1	-1	-1	-1	17	-1	-1	14	48	-1	-1	-1
-1	-1	13	-1	-1	5	59	-1	-1	-1	-1	-1	-1	10	-1	56	-1	53	-1	46	48	-1	9	-1	28	32	42	60	-1	-1	25	-1	6	7	-1	-1	-1	-1	63	-1	-1	-1	58	-1	-1	-1	20	-1	-1	2	-1	-1	24	39	21	35	34	49	16	-1	44	-1	-1	18
-1	51	-1	47	33	-1	-1	-1	50	26	-1	-1	-1	-1	-1	-1	25	37	44	53	-1	-1	-1	64	-1	61	11	-1	-1	58	-1	-1	-1	54	-1	-1	46	-1	-1	28	59	-1	23	-1	29	-1	19	-1	30	-1	-1	34	-1	-1	-1	-1	5	-1	36	-1	-1	7	24	-1
16	-1	-1	15	59	20	11	31	4	44	6	34	-1	-1	60	38	-1	-1	-1	48	50	-1	52	-1	-1	2	-1	-1	-1	-1	28	42	-1	43	40	-1	23	-1	-1	45	-1	51	-1	-1	-1	-1	-1	-1	-1	54	-1	-1	-1	-1	-1	-1	-1	41	1	9	56	13	25	33
-1	54	-1	-1	21	-1	-1	-1	-1	62	-1	-1	-1	-1	-1	57	-1	-1	49	18	-1	-1	46	9	5	-1	-1	-1	24	-1	17	-1	-1	-1	-1	-1	38	-1	7	-1	-1	30	-1	-1	-1	33	4	-1	-1	-1	15	-1	-1	44	-1	-1	-1	-1	-1	42	-1	-1	11	-1
55	-1	48	44	35	-1	50	-1	-1	7	-1	25	-1	-1	-1	40	-1	60	56	-1	-1	24	-1	63	21	22	39	64	-1	-1	52	-1	-1	37	-1	-1	18	5	-1	-1	-1	-1	-1	-1	-1	1	-1	-1	57	58	27	45	-1	17	-1	-1	-1	-1	-1	-1	-1	-1	-1	-1
-1	-1	-1	-1	41	-1	-1	60	-1	-1	61	-1	29	2	11	-1	47	-1	-1	-1	17	-1	13	-1	40	49	12	-1	57	-1	-1	38	53	15	-1	42	56	9	-1	-1	58	-1	-1	8	-1	31	-1	-1	-1	7	-1	-1	-1	-1	5	-1	62	10	-1	-1	-1	-1	-1	23
-1	-1	17	-1	-1	8	-1	-1	53	-1	9	59	-1	-1	-1	-1	16	-1	-1	-1	20	40	-1	36	-1	-1	-1	19	44	31	-1	-1	10	-1	-1	-1	2	-1	-1	-1	45	-1	-1	-1	-1	-1	48	-1	-1	33	-1	39	49	-1	-1	-1	27	55	18	-1	-1	34	-1	-1
27	6	-1	-1	9	-1	-1	-1	-1	-1	-1	-1	-1	48	-1	-1	-1	-1	-1	-1	34	-1	5	-1	-1	-1	-1	59	15	62	-1	-1	55	-1	-1	-1	-1	-1	-1	-1	-1	-1	-1	-1	47	-1	24	-1	56	-1	-1	-1	2	-1	-1	-1	-1	-1	61	44	-1	17	8	20
-1	-1	64	-1	-1	-1	-1	58	-1	-1	27	22	-1	24	52	-1	62	-1	-1	55	-1	-1	11	-1	-1	36	-1	-1	45	29	43	14	51	-1	44	39	4	13	-1	-1	-1	10	-1	9	-1	37	-1	49	12	38	-1	-1	-1	60	-1	61	-1	-1	35	-1	53	-1	6	-1
-1	-1	11	-1	60	-1	41	14	22	-1	-1	-1	35	6	20	-1	-1	-1	-1	38	-1	50	62	51	-1	-1	-1	8	-1	-1	-1	-1	37	-1	-1	-1	36	64	29	31	43	49	-1	-1	16	-1	-1	30	-1	-1	54	-1	56	57	-1	-1	-1	-1	-1	10	-1	-1	63	24
5	-1	50	59	62	-1	31	-1	14	-1	41	49	-1	-1	-1	-1	-1	46	-1	27	9	-1	64	35	-1	-1	-1	-1	-1	-1	-1	-1	40	10	8	-1	-1	-1	48	15	-1	-1	-1	20	2	-1	63	37	-1	-1	-1	60	29	28	-1	-1	-1	-1	-1	-1	-1	-1	-1	-1
64	63	51	-1	37	-1	-1	-1	-1	-1	-1	-1	33	27	-1	-1	22	-1	-1	-1	-1	39	-1	-1	-1	-1	21	25	-1	50	-1	-1	-1	62	-1	35	-1	-1	17	-1	42	54	13	-1	-1	-1	-1	8	-1	1	-1	32	-1	-1	9	41	-1	-1	-1	-1	-1	-1	-1	28
6	-1	-1	22	-1	-1	-1	23	-1	46	-1	-1	59	-1	-1	-1	-1	-1	-1	21	-1	53	-1	-1	-1	-1	52	-1	20	-1	-1	51	18	5	-1	-1	-1	-1	-1	1	-1	41	-1	-1	-1	-1	-1	38	8	-1	37	27	-1	-1	2	-1	4	7	33	-1	42	-1	-1	45
33	-1	-1	-1	30	-1	-1	-1	-1	-1	-1	-1	-1	-1	-1	-1	-1	-1	61	-1	14	-1	-1	37	-1	29	-1	-1	34	-1	-1	-1	-1	-1	-1	51	24	-1	-1	-1	-1	-1	-1	-1	-1	-1	-1	10	64	-1	53	-1	-1	19	-1	-1	31	-1	-1	50	-1	27	48	52
-1	-1	-1	52	-1	16	-1	-1	29	-1	-1	-1	-1	-1	23	-1	2	-1	-1	-1	-1	63	12	-1	-1	-1	4	-1	46	-1	56	-1	27	-1	-1	-1	-1	22	-1	-1	-1	-1	-1	5	-1	-1	-1	-1	-1	-1	18	-1	17	35	-1	-1	54	26	62	-1	-1	53	19	64
21	45	-1	61	56	-1	55	-1	-1	-1	-1	19	-1	39	-1	-1	-1	-1	52	-1	33	60	48	-1	9	-1	-1	-1	53	13	-1	-1	-1	-1	-1	-1	-1	30	-1	3	-1	31	18	-1	57	-1	35	-1	-1	12	10	4	-1	62	-1	-1	41	17	-1	-1	-1	-1	-1	51
26	-1	-1	12	-1	42	-1	1	34	51	-1	-1	56	38	54	-1	57	6	15	-1	-1	30	49	-1	-1	-1	62	-1	-1	-1	-1	-1	47	-1	-1	46	50	-1	-1	32	44	-1	27	25	-1	48	29	-1	-1	-1	-1	43	-1	-1	39	-1	-1	-1	3	-1	-1	14	-1	-1
-1	-1	25	19	53	-1	47	-1	-1	-1	-1	-1	13	-1	-1	-1	-1	29	57	-1	36	-1	22	48	-1	64	-1	-1	5	45	8	-1	32	-1	-1	-1	-1	43	-1	18	-1	-1	-1	-1	-1	-1	-1	-1	-1	-1	-1	-1	-1	-1	-1	27	40	-1	12	31	55	-1	-1	63
-1	-1	-1	-1	-1	24	-1	-1	37	-1	19	64	-1	-1	-1	-1	-1	-1	-1	-1	10	51	38	-1	-1	-1	-1	-1	-1	36	-1	33	-1	-1	20	58	-1	55	-1	-1	-1	-1	-1	11	-1	12	-1	25	46	34	-1	-1	-1	22	63	42	-1	-1	6	-1	-1	-1	-1	-1
-1	10	20	-1	54	-1	-1	46	-1	28	-1	-1	-1	3	-1	-1	1	-1	-1	41	-1	-1	-1	61	35	-1	-1	29	-1	51	-1	-1	-1	-1	-1	-1	31	59	-1	63	-1	-1	15	43	55	6	60	16	53	24	40	19	-1	-1	50	57	2	23	64	7	22	-1	-1	-1
-1	-1	-1	1	34	-1	21	-1	-1	-1	26	-1	-1	-1	51	-1	4	-1	-1	-1	-1	-1	-1	60	-1	23	17	22	-1	-1	-1	63	-1	64	-1	-1	3	-1	47	-1	-1	-1	-1	-1	-1	-1	42	19	-1	-1	-1	-1	-1	36	-1	-1	8	-1	-1	41	-1	-1	-1	-1
-1	-1	-1	-1	-1	-1	39	-1	-1	4	-1	-1	-1	-1	57	-1	19	-1	-1	-1	-1	58	34	-1	-1	-1	-1	-1	-1	-1	6	-1	-1	-1	-1	-1	33	-1	-1	-1	13	-1	-1	-1	-1	-1	-1	-1	-1	-1	-1	5	-1	20	7	9	-1	-1	-1	16	-1	-1	26	-1
43	64	55	-1	-1	-1	-1	-1	-1	-1	-1	-1	-1	35	25	-1	-1	-1	63	-1	-1	9	-1	-1	-1	-1	-1	-1	60	-1	-1	-1	-1	36	-1	61	53	-1	6	-1	-1	-1	-1	-1	18	-1	-1	27	-1	-1	12	-1	-1	2	-1	-1	-1	-1	-1	47	51	-1	62	-1
44	-1	60	-1	-1	40	-1	-1	-1	55	10	54	-1	-1	-1	8	-1	-1	-1	37	-1	-1	24	2	-1	-1	-1	12	-1	-1	-1	-1	49	-1	-1	-1	52	-1	-1	-1	-1	-1	-1	-1	-1	46	-1	-1	31	28	-1	18	-1	-1	-1	-1	-1	-1	13	-1	-1	-1	5	-1
-1	42	-1	-1	52	2	58	6	-1	-1	-1	-1	41	-1	56	-1	55	-1	-1	12	11	-1	-1	31	-1	-1	-1	-1	-1	57	-1	16	-1	9	37	27	-1	-1	5	-1	-1	-1	-1	50	-1	-1	-1	29	54	-1	-1	64	15	25	-1	-1	28	-1	-1	21	-1	-1	33	-1
-1	-1	-1	60	-1	-1	-1	10	-1	49	34	-1	-1	-1	-1	-1	-1	-1	1	2	-1	-1	21	25	22	57	-1	11	17	-1	-1	37	-1	14	-1	55	-1	-1	46	-1	-1	-1	-1	-1	-1	20	8	-1	33	-1	-1	-1	-1	24	-1	5	-1	29	-1	3	-1	-1	-1	-1
46	-1	-1	-1	-1	36	13	30	-1	-1	25	39	-1	20	-1	24	-1	-1	6	-1	3	27	58	5	23	10	-1	61	42	-1	-1	-1	-1	4	-1	-1	37	-1	12	-1	-1	-1	-1	47	51	34	15	40	7	57	-1	-1	-1	-1	-1	-1	33	18	50	22	-1	45	-1	55
-1	-1	6	-1	8	-1	34	40	-1	22	30	46	-1	4	-1	-1	-1	-1	38	-1	-1	19	-1	-1	-1	-1	-1	-1	-1	14	48	43	-1	51	-1	2	-1	-1	-1	42	-1	-1	-1	-1	10	41	58	-1	-1	-1	45	35	28	53	-1	29	-1	5	-1	-1	23	-1	17	49
-1	-1	-1	-1	-1	-1	-1	-1	-1	11	7	-1	-1	60	-1	-1	49	20	-1	15	-1	-1	-1	-1	-1	-1	-1	2	-1	-1	58	-1	50	25	23	8	-1	-1	-1	-1	-1	-1	-1	-1	4	-1	57	-1	62	-1	30	-1	55	37	-1	-1	44	6	56	52	-1	48	61	-1
-1	-1	62	-1	-1	-1	-1	61	-1	-1	21	-1	-1	-1	41	10	45	40	-1	-1	22	37	-1	59	29	-1	30	26	-1	-1	-1	-1	-1	-1	-1	-1	-1	20	49	-1	-1	11	-1	-1	-1	38	46	53	4	-1	-1	-1	3	-1	-1	-1	-1	-1	-1	-1	47	-1	-1	-1
-1	-1	-1	54	38	-1	-1	-1	-1	3	-1	-1	50	59	-1	36	-1	13	-1	9	44	-1	28	-1	-1	-1	45	-1	-1	-1	-1	8	-1	61	-1	29	32	57	52	17	18	-1	-1	-1	-1	-1	-1	22	15	16	-1	-1	-1	-1	-1	-1	-1	63	30	-1	14	-1	-1	-1
56	-1	-1	35	16	-1	-1	-1	1	63	43	17	51	-1	-1	48	-1	33	-1	-1	-1	-1	-1	-1	62	-1	18	52	41	15	-1	-1	-1	53	38	-1	7	-1	-1	-1	-1	36	-1	23	30	-1	37	-1	-1	-1	11	44	-1	-1	-1	-1	-1	-1	4	58	13	-1	-1	25
-1	14	-1	48	19	23	-1	-1	8	-1	-1	57	32	31	-1	12	-1	-1	-1	4	29	-1	18	52	-1	-1	-1	21	-1	-1	-1	-1	-1	41	-1	-1	16	-1	-1	35	-1	-1	45	-1	61	-1	-1	64	59	39	-1	-1	-1	27	-1	10	-1	-1	51	-1	-1	42	-1	-1
-1	-1	57	34	39	58	-1	-1	49	-1	23	-1	-1	-1	-1	-1	33	2	-1	64	-1	-1	-1	-1	1	-1	24	-1	-1	18	-1	-1	38	22	-1	-1	-1	-1	43	-1	-1	-1	48	-1	-1	-1	-1	-1	-1	15	-1	-1	-1	26	30	-1	11	12	-1	-1	-1	35	42	-1
31	2	46	37	-1	41	32	11	-1	-1	-1	-1	22	-1	15	-1	58	4	18	47	-1	-1	29	14	-1	55	7	27	59	60	5	6	57	12	-1	19	45	-1	-1	-1	-1	-1	-1	-1	-1	50	-1	-1	-1	-1	-1	-1	34	-1	-1	8	-1	-1	-1	56	-1	51	53	-1
18	-1	59	-1	-1	-1	-1	15	-1	9	-1	-1	-1	-1	-1	25	48	-1	46	-1	-1	21	30	-1	20	8	-1	-1	-1	-1	29	-1	11	-1	5	-1	40	33	60	-1	-1	52	55	45	-1	56	-1	-1	51	-1	-1	-1	35	-1	-1	2	-1	-1	-1	34	-1	-1	-1	-1
54	-1	-1	-1	-1	-1	16	21	-1	-1	50	60	34	63	-1	-1	-1	-1	-1	-1	-1	-1	-1	62	52	25	31	-1	-1	-1	9	40	26	-1	56	-1	14	48	15	13	57	39	-1	-1	-1	-1	43	20	-1	-1	-1	-1	-1	-1	-1	1	-1	-1	-1	18	29	-1	-1	-1
-1	4	-1	-1	50	30	17	-1	-1	-1	-1	-1	-1	-1	59	33	9	45	-1	-1	63	15	7	-1	44	-1	-1	-1	48	-1	12	-1	-1	-1	10	20	-1	29	28	-1	-1	-1	-1	62	34	-1	23	24	32	-1	36	14	-1	18	-1	37	-1	-1	49	5	41	38	-1	-1
-1	20	5	-1	-1	-1	12	-1	40	-1	42	13	-1	46	29	-1	52	28	-1	-1	-1	43	-1	-1	38	47	-1	-1	-1	-1	-1	-1	-1	58	7	-1	-1	49	25	23	-1	14	-1	51	-1	16	-1	17	22	27	-1	-1	21	-1	-1	-1	-1	-1	8	1	62	-1	-1	4
-1	-1	-1	38	-1	-1	22	63	11	-1	-1	12	-1	30	-1	18	-1	10	-1	6	-1	61	60	-1	-1	-1	23	56	-1	-1	-1	58	-1	8	46	-1	-1	-1	37	50	27	5	-1	19	-1	-1	-1	-1	39	59	-1	-1	-1	-1	-1	-1	57	-1	-1	40	-1	-1	-1	36
-1	35	19	27	23	-1	3	29	62	10	4	-1	-1	43	-1	-1	-1	-1	37	40	-1	-1	8	-1	-1	21	50	33	11	-1	-1	13	-1	44	-1	-1	-1	-1	36	59	63	-1	7	46	-1	-1	54	32	-1	-1	-1	-1	-1	47	-1	-1	14	2	-1	-1	39	-1	-1	-1
64 
58 10 29 7
42 10 37 16
23 29 6 19
33 36 48 61
30 5 32 16
57 36 22 57
3 32 53 57
12 45 61 1
51 9 11 40
58 61 60 44
13 50 56 61
30 44 60 53
37 58 20 60
6 6 53 50
30 13 63 46
32 43 27 58
1 61 24 5
25 12 52 7
20 37 6 2
35 7 48 12
29 43 45 13
21 42 46 33
47 36 16 34
45 44 52 21
1 7 11 14
49 41 26 24
23 58 27 18
41 35 36 19
24 24 10 29
5 16 8 34
51 39 49 43
51 57 12 18
58 45 3 23
9 27 62 20
45 49 60 21
58 48 31 15
44 55 54 62
23 6 19 31
20 25 36 43
8 19 20 30
38 26 49 2
31 16 16 26
48 64 35 19
14 8 17 37
2 23 38 25
3 6 30 48
19 16 1 42
43 64 62 5
19 40 54 25
4 14 38 48
19 26 54 7
51 44 34 10
45 43 26 30
52 27 50 41
45 28 27 41
12 2 54 56
5 28 42 8
47 13 35 53
50 35 27 59
53 51 48 55
10 20 57 64
45 14 57 40
29 62 50 5
26 51 53 56
